; Options: -in -smt2
(set-option :produce-unsat-assumptions true)

(declare-fun start!2261 () Bool)

(assert start!2261)

(declare-fun b!11473 () Bool)

(declare-datatypes ((Unit!1301 0))(
  ( (Unit!1302) )
))
(declare-datatypes ((array!867 0))(
  ( (array!868 (arr!381 (Array (_ BitVec 32) (_ BitVec 32))) (size!381 (_ BitVec 32))) )
))
(declare-datatypes ((tuple3!212 0))(
  ( (tuple3!213 (_1!291 Unit!1301) (_2!291 array!867) (_3!228 (_ BitVec 32))) )
))
(declare-fun e!6636 () tuple3!212)

(declare-datatypes ((tuple4!244 0))(
  ( (tuple4!245 (_1!292 Unit!1301) (_2!292 array!867) (_3!229 (_ BitVec 32)) (_4!122 (_ FloatingPoint 11 53))) )
))
(declare-fun lt!6025 () tuple4!244)

(declare-fun lt!6030 () (_ BitVec 32))

(declare-fun Unit!1303 () Unit!1301)

(assert (=> b!11473 (= e!6636 (tuple3!213 Unit!1303 (_2!292 lt!6025) lt!6030))))

(declare-fun b!11474 () Bool)

(declare-fun res!9037 () Bool)

(declare-fun e!6639 () Bool)

(assert (=> b!11474 (=> (not res!9037) (not e!6639))))

(declare-fun iq!194 () array!867)

(declare-fun iqInv!0 (array!867) Bool)

(assert (=> b!11474 (= res!9037 (iqInv!0 iq!194))))

(declare-fun lt!6021 () array!867)

(declare-fun b!11475 () Bool)

(declare-datatypes ((array!869 0))(
  ( (array!870 (arr!382 (Array (_ BitVec 32) (_ FloatingPoint 11 53))) (size!382 (_ BitVec 32))) )
))
(declare-fun q!93 () array!869)

(declare-fun lt!6023 () (_ FloatingPoint 11 53))

(declare-fun e!6635 () tuple4!244)

(declare-fun jz!59 () (_ BitVec 32))

(declare-fun computeModuloWhile!0 ((_ BitVec 32) array!869 array!867 (_ BitVec 32) (_ FloatingPoint 11 53)) tuple4!244)

(assert (=> b!11475 (= e!6635 (computeModuloWhile!0 jz!59 q!93 lt!6021 jz!59 lt!6023))))

(declare-fun b!11476 () Bool)

(declare-fun e!6632 () Bool)

(declare-fun e!6633 () Bool)

(assert (=> b!11476 (= e!6632 e!6633)))

(declare-fun res!9034 () Bool)

(assert (=> b!11476 (=> (not res!9034) (not e!6633))))

(declare-fun lt!6022 () (_ FloatingPoint 11 53))

(assert (=> b!11476 (= res!9034 (and (fp.leq (fp #b0 #b00000000000 #b0000000000000000000000000000000000000000000000000000) lt!6022) (fp.lt lt!6022 (fp #b0 #b10000000010 #b0000000000000000000000000000000000000000000000000000))))))

(assert (=> b!11476 (= lt!6022 (fp.sub roundNearestTiesToEven (_4!122 lt!6025) (fp.mul roundNearestTiesToEven (fp #b0 #b10000000010 #b0000000000000000000000000000000000000000000000000000) ((_ to_fp 11 53) roundNearestTiesToEven (ite (fp.isNaN (fp.mul roundNearestTiesToEven (_4!122 lt!6025) (fp #b0 #b01111111100 #b0000000000000000000000000000000000000000000000000000))) #b0000000000000000000000000000000000000000000000000000000000000000 (ite (fp.gt (fp.mul roundNearestTiesToEven (_4!122 lt!6025) (fp #b0 #b01111111100 #b0000000000000000000000000000000000000000000000000000)) ((_ to_fp 11 53) roundTowardZero #b0111111111111111111111111111111111111111111111111111111111111111)) #b0111111111111111111111111111111111111111111111111111111111111111 (ite (fp.lt (fp.mul roundNearestTiesToEven (_4!122 lt!6025) (fp #b0 #b01111111100 #b0000000000000000000000000000000000000000000000000000)) ((_ to_fp 11 53) roundTowardZero #b1000000000000000000000000000000000000000000000000000000000000000)) #b1000000000000000000000000000000000000000000000000000000000000000 ((_ fp.to_sbv 64) roundTowardZero (fp.mul roundNearestTiesToEven (_4!122 lt!6025) (fp #b0 #b01111111100 #b0000000000000000000000000000000000000000000000000000))))))))))))

(assert (=> b!11476 (= lt!6025 e!6635)))

(declare-fun c!1433 () Bool)

(assert (=> b!11476 (= c!1433 (bvsgt jz!59 #b00000000000000000000000000000000))))

(assert (=> b!11476 (= lt!6023 (select (arr!382 q!93) jz!59))))

(assert (=> b!11476 (= lt!6021 (array!868 ((as const (Array (_ BitVec 32) (_ BitVec 32))) #b00000000000000000000000000000000) #b00000000000000000000000000010100))))

(declare-fun b!11477 () Bool)

(declare-fun lt!6028 () (_ BitVec 32))

(assert (=> b!11477 (= e!6639 (or (bvslt lt!6028 #b00000000000000000000000000000000) (bvsge lt!6028 (size!381 iq!194))))))

(assert (=> b!11477 (= lt!6028 (bvsub jz!59 #b00000000000000000000000000000001))))

(declare-fun res!9036 () Bool)

(assert (=> start!2261 (=> (not res!9036) (not e!6632))))

(assert (=> start!2261 (= res!9036 (and (bvsle #b00000000000000000000000000000010 jz!59) (bvslt jz!59 #b00000000000000000000000000010011)))))

(assert (=> start!2261 e!6632))

(assert (=> start!2261 true))

(declare-fun array_inv!330 (array!869) Bool)

(assert (=> start!2261 (array_inv!330 q!93)))

(declare-fun array_inv!331 (array!867) Bool)

(assert (=> start!2261 (array_inv!331 iq!194)))

(declare-fun b!11478 () Bool)

(assert (=> b!11478 (= e!6633 e!6639)))

(declare-fun res!9033 () Bool)

(assert (=> b!11478 (=> (not res!9033) (not e!6639))))

(declare-fun lt!6024 () tuple3!212)

(declare-fun i!271 () (_ BitVec 32))

(declare-fun lt!6020 () Bool)

(assert (=> b!11478 (= res!9033 (and (bvsle #b00000000000000000000000000000000 (select (arr!381 (_2!291 lt!6024)) (bvsub jz!59 #b00000000000000000000000000000001))) (bvsle (select (arr!381 (_2!291 lt!6024)) (bvsub jz!59 #b00000000000000000000000000000001)) #b00000000100000000000000000000000) (or (not lt!6020) (not (= (_3!228 lt!6024) #b00000000000000000000000000000000)) (not (= (select (arr!381 (_2!291 lt!6024)) (bvsub jz!59 #b00000000000000000000000000000001)) #b00000000100000000000000000000000))) (bvsle (select (arr!381 (_2!291 lt!6024)) (bvsub jz!59 #b00000000000000000000000000000001)) #b00000000011111111111111111111111) (bvsle #b00000000000000000000000000000000 i!271) (bvsle i!271 jz!59)))))

(assert (=> b!11478 (= lt!6024 e!6636)))

(declare-fun c!1431 () Bool)

(assert (=> b!11478 (= c!1431 lt!6020)))

(assert (=> b!11478 (= lt!6030 #b00000000000000000000000000000000)))

(assert (=> b!11478 (= lt!6020 (bvsge (select (arr!381 (_2!292 lt!6025)) (bvsub jz!59 #b00000000000000000000000000000001)) #b00000000100000000000000000000000))))

(declare-fun b!11479 () Bool)

(declare-fun lt!6029 () (_ BitVec 32))

(declare-datatypes ((tuple4!246 0))(
  ( (tuple4!247 (_1!293 Unit!1301) (_2!293 (_ BitVec 32)) (_3!230 array!867) (_4!123 (_ BitVec 32))) )
))
(declare-fun e!6638 () tuple4!246)

(declare-fun computeModuloWhile!3 ((_ BitVec 32) array!869 (_ BitVec 32) array!867 (_ BitVec 32)) tuple4!246)

(assert (=> b!11479 (= e!6638 (computeModuloWhile!3 jz!59 q!93 lt!6029 (_2!292 lt!6025) lt!6030))))

(declare-fun b!11480 () Bool)

(declare-fun Unit!1304 () Unit!1301)

(assert (=> b!11480 (= e!6635 (tuple4!245 Unit!1304 lt!6021 jz!59 lt!6023))))

(declare-fun b!11481 () Bool)

(declare-fun res!9035 () Bool)

(assert (=> b!11481 (=> (not res!9035) (not e!6632))))

(declare-fun qInv!0 (array!869) Bool)

(assert (=> b!11481 (= res!9035 (qInv!0 q!93))))

(declare-fun lt!6026 () (_ BitVec 32))

(declare-fun b!11482 () Bool)

(declare-fun lt!6027 () tuple4!246)

(declare-fun Unit!1305 () Unit!1301)

(assert (=> b!11482 (= e!6636 (tuple3!213 Unit!1305 (array!868 (store (arr!381 (_3!230 lt!6027)) (bvsub jz!59 #b00000000000000000000000000000001) (ite (= (_4!123 lt!6027) #b00000000000000000000000000000000) (bvsub #b00000001000000000000000000000000 lt!6026) (bvsub #b00000000111111111111111111111111 lt!6026))) (size!381 (_3!230 lt!6027))) (_4!123 lt!6027)))))

(assert (=> b!11482 (= lt!6029 #b00000000000000000000000000000000)))

(declare-fun c!1432 () Bool)

(assert (=> b!11482 (= c!1432 (bvslt lt!6029 (bvsub jz!59 #b00000000000000000000000000000001)))))

(assert (=> b!11482 (= lt!6027 e!6638)))

(assert (=> b!11482 (= lt!6026 (select (arr!381 (_3!230 lt!6027)) (bvsub jz!59 #b00000000000000000000000000000001)))))

(declare-fun b!11483 () Bool)

(declare-fun Unit!1306 () Unit!1301)

(assert (=> b!11483 (= e!6638 (tuple4!247 Unit!1306 lt!6029 (_2!292 lt!6025) lt!6030))))

(assert (= (and start!2261 res!9036) b!11481))

(assert (= (and b!11481 res!9035) b!11476))

(assert (= (and b!11476 c!1433) b!11475))

(assert (= (and b!11476 (not c!1433)) b!11480))

(assert (= (and b!11476 res!9034) b!11478))

(assert (= (and b!11478 c!1431) b!11482))

(assert (= (and b!11478 (not c!1431)) b!11473))

(assert (= (and b!11482 c!1432) b!11479))

(assert (= (and b!11482 (not c!1432)) b!11483))

(assert (= (and b!11478 res!9033) b!11474))

(assert (= (and b!11474 res!9037) b!11477))

(declare-fun m!16131 () Bool)

(assert (=> b!11474 m!16131))

(declare-fun m!16133 () Bool)

(assert (=> b!11479 m!16133))

(declare-fun m!16135 () Bool)

(assert (=> b!11478 m!16135))

(declare-fun m!16137 () Bool)

(assert (=> b!11478 m!16137))

(declare-fun m!16139 () Bool)

(assert (=> b!11481 m!16139))

(declare-fun m!16141 () Bool)

(assert (=> b!11475 m!16141))

(declare-fun m!16143 () Bool)

(assert (=> b!11476 m!16143))

(declare-fun m!16145 () Bool)

(assert (=> b!11482 m!16145))

(declare-fun m!16147 () Bool)

(assert (=> b!11482 m!16147))

(declare-fun m!16149 () Bool)

(assert (=> start!2261 m!16149))

(declare-fun m!16151 () Bool)

(assert (=> start!2261 m!16151))

(check-sat (not b!11474) (not b!11479) (not start!2261) (not b!11481) (not b!11475))
(check-sat)
(get-model)

(declare-fun d!4395 () Bool)

(declare-fun e!6649 () Bool)

(assert (=> d!4395 e!6649))

(declare-fun res!9052 () Bool)

(assert (=> d!4395 (=> (not res!9052) (not e!6649))))

(declare-fun lt!6055 () tuple4!246)

(assert (=> d!4395 (= res!9052 (and (or (bvsgt #b00000000000000000000000000000000 (_2!293 lt!6055)) (= (bvand jz!59 #b10000000000000000000000000000000) #b00000000000000000000000000000000) (= (bvand jz!59 #b10000000000000000000000000000000) (bvand (bvsub jz!59 #b00000000000000000000000000000001) #b10000000000000000000000000000000))) (bvsle #b00000000000000000000000000000000 (_2!293 lt!6055)) (bvsle (_2!293 lt!6055) (bvsub jz!59 #b00000000000000000000000000000001))))))

(declare-fun e!6648 () tuple4!246)

(assert (=> d!4395 (= lt!6055 e!6648)))

(declare-fun c!1439 () Bool)

(declare-fun lt!6054 () (_ BitVec 32))

(assert (=> d!4395 (= c!1439 (bvslt lt!6054 (bvsub jz!59 #b00000000000000000000000000000001)))))

(assert (=> d!4395 (= lt!6054 (bvadd lt!6029 #b00000000000000000000000000000001))))

(declare-fun lt!6050 () (_ BitVec 32))

(declare-fun lt!6053 () (_ BitVec 32))

(assert (=> d!4395 (= lt!6050 (ite (and (= lt!6030 #b00000000000000000000000000000000) (not (= lt!6053 #b00000000000000000000000000000000))) #b00000000000000000000000000000001 lt!6030))))

(declare-fun lt!6052 () array!867)

(assert (=> d!4395 (= lt!6052 (array!868 (store (arr!381 (_2!292 lt!6025)) lt!6029 (ite (= lt!6030 #b00000000000000000000000000000000) (ite (not (= lt!6053 #b00000000000000000000000000000000)) (bvsub #b00000001000000000000000000000000 lt!6053) #b00000000000000000000000000000000) (bvsub #b00000000111111111111111111111111 lt!6053))) (size!381 (_2!292 lt!6025))))))

(assert (=> d!4395 (= lt!6053 (select (arr!381 (_2!292 lt!6025)) lt!6029))))

(declare-fun e!6651 () Bool)

(assert (=> d!4395 e!6651))

(declare-fun res!9055 () Bool)

(assert (=> d!4395 (=> (not res!9055) (not e!6651))))

(assert (=> d!4395 (= res!9055 (and (bvsle #b00000000000000000000000000000000 lt!6029) (bvsle lt!6029 (bvsub jz!59 #b00000000000000000000000000000001))))))

(declare-fun lt!6057 () tuple4!244)

(declare-fun e!6650 () tuple4!244)

(assert (=> d!4395 (= lt!6057 e!6650)))

(declare-fun c!1438 () Bool)

(assert (=> d!4395 (= c!1438 (bvsgt jz!59 #b00000000000000000000000000000000))))

(declare-fun lt!6049 () (_ FloatingPoint 11 53))

(assert (=> d!4395 (= lt!6049 (select (arr!382 q!93) jz!59))))

(declare-fun lt!6056 () array!867)

(assert (=> d!4395 (= lt!6056 (array!868 ((as const (Array (_ BitVec 32) (_ BitVec 32))) #b00000000000000000000000000000000) #b00000000000000000000000000010100))))

(assert (=> d!4395 (= (computeModuloWhile!3 jz!59 q!93 lt!6029 (_2!292 lt!6025) lt!6030) lt!6055)))

(declare-fun b!11504 () Bool)

(declare-fun res!9051 () Bool)

(assert (=> b!11504 (=> (not res!9051) (not e!6651))))

(assert (=> b!11504 (= res!9051 (iqInv!0 (_2!292 lt!6025)))))

(declare-fun b!11505 () Bool)

(declare-fun res!9054 () Bool)

(assert (=> b!11505 (=> (not res!9054) (not e!6649))))

(assert (=> b!11505 (= res!9054 (or (= (_4!123 lt!6055) #b00000000000000000000000000000000) (= (_4!123 lt!6055) #b00000000000000000000000000000001)))))

(declare-fun b!11506 () Bool)

(declare-fun res!9050 () Bool)

(assert (=> b!11506 (=> (not res!9050) (not e!6649))))

(declare-fun lt!6051 () (_ BitVec 32))

(assert (=> b!11506 (= res!9050 (bvsge (select (arr!381 (_3!230 lt!6055)) lt!6051) #b00000000100000000000000000000000))))

(assert (=> b!11506 (and (bvsge lt!6051 #b00000000000000000000000000000000) (bvslt lt!6051 (size!381 (_3!230 lt!6055))))))

(assert (=> b!11506 (= lt!6051 (bvsub jz!59 #b00000000000000000000000000000001))))

(assert (=> b!11506 (or (= (bvand jz!59 #b10000000000000000000000000000000) #b00000000000000000000000000000000) (= (bvand jz!59 #b10000000000000000000000000000000) (bvand (bvsub jz!59 #b00000000000000000000000000000001) #b10000000000000000000000000000000)))))

(declare-fun b!11507 () Bool)

(assert (=> b!11507 (= e!6649 (bvsge (_2!293 lt!6055) (bvsub jz!59 #b00000000000000000000000000000001)))))

(assert (=> b!11507 (or (= (bvand jz!59 #b10000000000000000000000000000000) #b00000000000000000000000000000000) (= (bvand jz!59 #b10000000000000000000000000000000) (bvand (bvsub jz!59 #b00000000000000000000000000000001) #b10000000000000000000000000000000)))))

(declare-fun b!11508 () Bool)

(assert (=> b!11508 (= e!6648 (computeModuloWhile!3 jz!59 q!93 lt!6054 lt!6052 lt!6050))))

(declare-fun b!11509 () Bool)

(assert (=> b!11509 (= e!6651 (and (bvsge (select (arr!381 (_2!292 lt!6025)) (bvsub jz!59 #b00000000000000000000000000000001)) #b00000000100000000000000000000000) (or (= lt!6030 #b00000000000000000000000000000000) (= lt!6030 #b00000000000000000000000000000001)) (bvslt lt!6029 (bvsub jz!59 #b00000000000000000000000000000001))))))

(declare-fun b!11510 () Bool)

(declare-fun Unit!1307 () Unit!1301)

(assert (=> b!11510 (= e!6648 (tuple4!247 Unit!1307 lt!6054 lt!6052 lt!6050))))

(declare-fun b!11511 () Bool)

(assert (=> b!11511 (= e!6650 (computeModuloWhile!0 jz!59 q!93 lt!6056 jz!59 lt!6049))))

(declare-fun b!11512 () Bool)

(declare-fun Unit!1308 () Unit!1301)

(assert (=> b!11512 (= e!6650 (tuple4!245 Unit!1308 lt!6056 jz!59 lt!6049))))

(declare-fun b!11513 () Bool)

(declare-fun res!9053 () Bool)

(assert (=> b!11513 (=> (not res!9053) (not e!6649))))

(assert (=> b!11513 (= res!9053 (iqInv!0 (_3!230 lt!6055)))))

(assert (= (and d!4395 c!1438) b!11511))

(assert (= (and d!4395 (not c!1438)) b!11512))

(assert (= (and d!4395 res!9055) b!11504))

(assert (= (and b!11504 res!9051) b!11509))

(assert (= (and d!4395 c!1439) b!11508))

(assert (= (and d!4395 (not c!1439)) b!11510))

(assert (= (and d!4395 res!9052) b!11513))

(assert (= (and b!11513 res!9053) b!11506))

(assert (= (and b!11506 res!9050) b!11505))

(assert (= (and b!11505 res!9054) b!11507))

(declare-fun m!16153 () Bool)

(assert (=> b!11504 m!16153))

(declare-fun m!16155 () Bool)

(assert (=> b!11513 m!16155))

(declare-fun m!16157 () Bool)

(assert (=> b!11506 m!16157))

(assert (=> b!11509 m!16137))

(declare-fun m!16159 () Bool)

(assert (=> b!11511 m!16159))

(declare-fun m!16161 () Bool)

(assert (=> b!11508 m!16161))

(declare-fun m!16163 () Bool)

(assert (=> d!4395 m!16163))

(declare-fun m!16165 () Bool)

(assert (=> d!4395 m!16165))

(assert (=> d!4395 m!16143))

(assert (=> b!11479 d!4395))

(declare-fun d!4397 () Bool)

(declare-fun res!9058 () Bool)

(declare-fun e!6654 () Bool)

(assert (=> d!4397 (=> (not res!9058) (not e!6654))))

(assert (=> d!4397 (= res!9058 (= (size!381 iq!194) #b00000000000000000000000000010100))))

(assert (=> d!4397 (= (iqInv!0 iq!194) e!6654)))

(declare-fun b!11516 () Bool)

(declare-fun lambda!511 () Int)

(declare-fun all20Int!0 (array!867 Int) Bool)

(assert (=> b!11516 (= e!6654 (all20Int!0 iq!194 lambda!511))))

(assert (= (and d!4397 res!9058) b!11516))

(declare-fun m!16167 () Bool)

(assert (=> b!11516 m!16167))

(assert (=> b!11474 d!4397))

(declare-fun b!11529 () Bool)

(declare-fun e!6661 () Bool)

(assert (=> b!11529 (= e!6661 (bvsgt jz!59 #b00000000000000000000000000000000))))

(declare-fun d!4399 () Bool)

(declare-fun e!6662 () Bool)

(assert (=> d!4399 e!6662))

(declare-fun res!9069 () Bool)

(assert (=> d!4399 (=> (not res!9069) (not e!6662))))

(declare-fun lt!6070 () tuple4!244)

(assert (=> d!4399 (= res!9069 (and true true (bvsle #b00000000000000000000000000000000 (_3!229 lt!6070)) (bvsle (_3!229 lt!6070) jz!59) (fp.leq (fp #b0 #b00000000000 #b0000000000000000000000000000000000000000000000000000) (_4!122 lt!6070)) (fp.leq (_4!122 lt!6070) (fp #b0 #b10000110001 #b0100000000000000000000010011111111111111111111111100))))))

(declare-fun e!6663 () tuple4!244)

(assert (=> d!4399 (= lt!6070 e!6663)))

(declare-fun c!1442 () Bool)

(declare-fun lt!6069 () (_ BitVec 32))

(assert (=> d!4399 (= c!1442 (bvsgt lt!6069 #b00000000000000000000000000000000))))

(assert (=> d!4399 (= lt!6069 (bvsub jz!59 #b00000000000000000000000000000001))))

(declare-fun lt!6072 () (_ FloatingPoint 11 53))

(declare-fun lt!6071 () (_ FloatingPoint 11 53))

(assert (=> d!4399 (= lt!6071 (fp.add roundNearestTiesToEven (select (arr!382 q!93) (bvsub jz!59 #b00000000000000000000000000000001)) lt!6072))))

(declare-fun lt!6068 () array!867)

(assert (=> d!4399 (= lt!6068 (array!868 (store (arr!381 lt!6021) (bvsub jz!59 jz!59) (ite (fp.isNaN (fp.sub roundNearestTiesToEven lt!6023 (fp.mul roundNearestTiesToEven (fp #b0 #b10000010111 #b0000000000000000000000000000000000000000000000000000) lt!6072))) #b00000000000000000000000000000000 (ite (fp.gt (fp.sub roundNearestTiesToEven lt!6023 (fp.mul roundNearestTiesToEven (fp #b0 #b10000010111 #b0000000000000000000000000000000000000000000000000000) lt!6072)) ((_ to_fp 11 53) roundTowardZero #b01111111111111111111111111111111)) #b01111111111111111111111111111111 (ite (fp.lt (fp.sub roundNearestTiesToEven lt!6023 (fp.mul roundNearestTiesToEven (fp #b0 #b10000010111 #b0000000000000000000000000000000000000000000000000000) lt!6072)) ((_ to_fp 11 53) roundTowardZero #b10000000000000000000000000000000)) #b10000000000000000000000000000000 ((_ fp.to_sbv 32) roundTowardZero (fp.sub roundNearestTiesToEven lt!6023 (fp.mul roundNearestTiesToEven (fp #b0 #b10000010111 #b0000000000000000000000000000000000000000000000000000) lt!6072))))))) (size!381 lt!6021)))))

(assert (=> d!4399 (= lt!6072 ((_ to_fp 11 53) roundNearestTiesToEven (ite (fp.isNaN (fp.mul roundNearestTiesToEven (fp #b0 #b01111100111 #b0000000000000000000000000000000000000000000000000000) lt!6023)) #b00000000000000000000000000000000 (ite (fp.gt (fp.mul roundNearestTiesToEven (fp #b0 #b01111100111 #b0000000000000000000000000000000000000000000000000000) lt!6023) ((_ to_fp 11 53) roundTowardZero #b01111111111111111111111111111111)) #b01111111111111111111111111111111 (ite (fp.lt (fp.mul roundNearestTiesToEven (fp #b0 #b01111100111 #b0000000000000000000000000000000000000000000000000000) lt!6023) ((_ to_fp 11 53) roundTowardZero #b10000000000000000000000000000000)) #b10000000000000000000000000000000 ((_ fp.to_sbv 32) roundTowardZero (fp.mul roundNearestTiesToEven (fp #b0 #b01111100111 #b0000000000000000000000000000000000000000000000000000) lt!6023)))))))))

(assert (=> d!4399 e!6661))

(declare-fun res!9067 () Bool)

(assert (=> d!4399 (=> (not res!9067) (not e!6661))))

(assert (=> d!4399 (= res!9067 (and (bvsle #b00000000000000000000000000000000 jz!59) (bvsle jz!59 jz!59) (fp.leq (fp #b0 #b00000000000 #b0000000000000000000000000000000000000000000000000000) lt!6023) (fp.leq lt!6023 (fp #b0 #b10000110001 #b0100000000000000000000010011111111111111111111111100))))))

(assert (=> d!4399 (= (computeModuloWhile!0 jz!59 q!93 lt!6021 jz!59 lt!6023) lt!6070)))

(declare-fun b!11530 () Bool)

(declare-fun Unit!1309 () Unit!1301)

(assert (=> b!11530 (= e!6663 (tuple4!245 Unit!1309 lt!6068 lt!6069 lt!6071))))

(declare-fun b!11531 () Bool)

(assert (=> b!11531 (= e!6662 (bvsle (_3!229 lt!6070) #b00000000000000000000000000000000))))

(declare-fun b!11532 () Bool)

(assert (=> b!11532 (= e!6663 (computeModuloWhile!0 jz!59 q!93 lt!6068 lt!6069 lt!6071))))

(declare-fun b!11533 () Bool)

(declare-fun res!9068 () Bool)

(assert (=> b!11533 (=> (not res!9068) (not e!6662))))

(assert (=> b!11533 (= res!9068 (iqInv!0 (_2!292 lt!6070)))))

(declare-fun b!11534 () Bool)

(declare-fun res!9070 () Bool)

(assert (=> b!11534 (=> (not res!9070) (not e!6661))))

(assert (=> b!11534 (= res!9070 (iqInv!0 lt!6021))))

(assert (= (and d!4399 res!9067) b!11534))

(assert (= (and b!11534 res!9070) b!11529))

(assert (= (and d!4399 c!1442) b!11532))

(assert (= (and d!4399 (not c!1442)) b!11530))

(assert (= (and d!4399 res!9069) b!11533))

(assert (= (and b!11533 res!9068) b!11531))

(declare-fun m!16169 () Bool)

(assert (=> d!4399 m!16169))

(declare-fun m!16171 () Bool)

(assert (=> d!4399 m!16171))

(declare-fun m!16173 () Bool)

(assert (=> b!11532 m!16173))

(declare-fun m!16175 () Bool)

(assert (=> b!11533 m!16175))

(declare-fun m!16177 () Bool)

(assert (=> b!11534 m!16177))

(assert (=> b!11475 d!4399))

(declare-fun d!4401 () Bool)

(declare-fun res!9073 () Bool)

(declare-fun e!6666 () Bool)

(assert (=> d!4401 (=> (not res!9073) (not e!6666))))

(assert (=> d!4401 (= res!9073 (= (size!382 q!93) #b00000000000000000000000000010100))))

(assert (=> d!4401 (= (qInv!0 q!93) e!6666)))

(declare-fun b!11537 () Bool)

(declare-fun lambda!514 () Int)

(declare-fun all20!0 (array!869 Int) Bool)

(assert (=> b!11537 (= e!6666 (all20!0 q!93 lambda!514))))

(assert (= (and d!4401 res!9073) b!11537))

(declare-fun m!16179 () Bool)

(assert (=> b!11537 m!16179))

(assert (=> b!11481 d!4401))

(declare-fun d!4403 () Bool)

(assert (=> d!4403 (= (array_inv!330 q!93) (bvsge (size!382 q!93) #b00000000000000000000000000000000))))

(assert (=> start!2261 d!4403))

(declare-fun d!4405 () Bool)

(assert (=> d!4405 (= (array_inv!331 iq!194) (bvsge (size!381 iq!194) #b00000000000000000000000000000000))))

(assert (=> start!2261 d!4405))

(check-sat (not b!11532) (not b!11534) (not b!11511) (not b!11516) (not b!11508) (not b!11504) (not b!11533) (not b!11537) (not b!11513))
(check-sat)
